c Output_time 26.03.2020 18:15:11_+0100 1585242911955039468
c ** Program information **
c program_name                          "QBRG_debug"
c version                               "0.3.20"
c date                                  "25.3.2020"
c gid_id                                "673970833836058123f633335630c185360d632e"
c author                                "Oliver Kullmann"
c url                                   "https://github.com/OKullmann/oklibrary/blob/master/Satisfiability/Transformers/Generators/Random/QBRG.cpp"
c ** Machine information **
c machine_name                          "chyna-Lenovo-G50-70"
c bogomips                              3791.08
c ** Compilation information **
c compiler_version                      "g++ 7.5.0"
c compilation_date                      "Mar_26_2020 11:16:30"
c compilation_options                   "--std=c++17 -pedantic -fmax-errors=5 -Wall -Wextra -g -D_GLIBCXX_DEBUG"
c NDEBUG                                0
c OPTIMIZE                              0
c ** Parameters **
c command-line                          "./QBRG_debug" "a40 e40 a40 40" "221*1,1|2-2,1|3-3,1|4-4,1" "" "1,t" ""
c output                                "QuBlRaGe_160_221_1585242911937258601.qdimacs"
c options                               "filtered,renamed"
c num_quantifier_blocks                 4
c  quantifier_blocks                    1:a1-40 2:e41-80 3:a81-120 4:e121-160
c num_clause-blocks                     1
c  clause-blocks                        221 * {1-40,1,1/2} | {41-80,1,1/2} | {81-120,1,1/2} | {121-160,1,1/2}
c num_e-seeds                           37+2=39
c  e-seeds                              1 0 1 0 5 160 2 40 0 40 1 40 0 40 1 221 4 1 1 1 1 2 2 2 1 1 2 3 3 1 1 2 4 4 1 1 2 1 1585242911937258008
p cnf 160 221
a 1 2 3 4 5 6 7 8 9 10 11 12 13 14 15 16 17 18 19 20 21 22 23 24 25 26 27 28 29 30 31 32 33 34 35 36 37 38 39 40 0
e 41 42 43 44 45 46 47 48 49 50 51 52 53 54 55 56 57 58 59 60 61 62 63 64 65 66 67 68 69 70 71 72 73 74 75 76 77 78 79 80 0
a 81 82 83 84 85 86 87 88 89 90 91 92 93 94 95 96 97 98 99 100 101 102 103 104 105 106 107 108 109 110 111 112 113 114 115 116 117 118 119 120 0
e 121 122 123 124 125 126 127 128 129 130 131 132 133 134 135 136 137 138 139 140 141 142 143 144 145 146 147 148 149 150 151 152 153 154 155 156 157 158 159 160 0
-26 78 90 -121 0
26 -44 105 -121 0
9 -46 -86 121 0
-26 77 -101 121 0
-25 -43 -106 121 0
15 49 -111 121 0
21 -50 -120 121 0
-1 65 84 -122 0
5 68 -114 -122 0
-7 -53 119 -122 0
-9 -66 -92 122 0
14 54 95 122 0
-31 61 97 122 0
4 49 109 122 0
18 62 -118 122 0
16 48 -81 -123 0
32 58 -85 -123 0
33 68 -105 -123 0
-4 -58 96 123 0
-22 -43 115 123 0
-32 -75 118 123 0
-23 -46 83 -124 0
15 62 91 -124 0
-14 64 109 -124 0
-27 -63 82 124 0
-11 -53 92 124 0
27 46 -100 124 0
23 68 -84 -125 0
-17 69 -113 -125 0
-27 -44 -94 125 0
-3 73 97 125 0
21 46 99 125 0
-10 54 -104 125 0
21 -71 115 125 0
34 -77 87 -126 0
12 -74 -98 -126 0
11 -47 -99 -126 0
-7 76 101 -126 0
16 45 -104 126 0
-36 -59 108 126 0
-26 -62 96 -127 0
13 77 -99 -127 0
-30 50 -111 -127 0
5 50 -117 -127 0
24 -41 118 -127 0
9 -70 84 127 0
22 66 -106 127 0
-7 -44 -111 127 0
40 -55 -90 -128 0
-37 -60 -93 -128 0
-6 61 116 -128 0
-22 -54 -85 128 0
-6 65 -98 129 0
7 45 -106 129 0
-36 -64 119 129 0
27 61 -84 -130 0
6 54 92 -130 0
-38 70 93 -130 0
-3 49 107 -130 0
-29 63 109 -130 0
-14 62 110 -130 0
-31 -57 -116 -130 0
14 54 116 -130 0
-32 -45 -83 130 0
8 -75 102 130 0
16 63 117 130 0
34 -66 118 130 0
35 77 -85 -131 0
11 50 -86 -131 0
16 72 -95 -131 0
-10 78 109 -131 0
39 -45 115 -131 0
24 -53 98 131 0
22 43 101 131 0
34 43 81 -132 0
23 60 91 -132 0
24 67 -96 -132 0
-21 -73 -103 -132 0
-4 -59 106 132 0
-39 -76 -95 -133 0
28 60 97 -133 0
-31 -71 115 -133 0
-9 -48 81 133 0
-4 61 -88 133 0
21 -60 -102 -134 0
-4 47 106 -134 0
23 70 -86 134 0
-14 -77 111 134 0
37 -60 -99 -135 0
34 67 109 -135 0
6 -49 -85 135 0
39 72 -94 135 0
-18 80 111 135 0
-35 57 115 135 0
6 -48 -119 135 0
24 51 81 -136 0
11 68 -105 -136 0
-33 -59 110 -136 0
2 55 116 136 0
23 51 -82 -137 0
29 -62 -86 -137 0
-2 76 -93 137 0
-36 61 99 137 0
36 41 -114 137 0
-40 44 -119 137 0
22 54 -87 -138 0
-7 -76 -102 138 0
17 -56 -115 138 0
26 72 -119 138 0
-2 -44 119 138 0
-7 -52 84 -139 0
-8 -47 86 -139 0
-34 63 -99 -139 0
5 72 101 -139 0
31 42 104 -139 0
33 74 -92 139 0
27 -53 -91 -140 0
36 54 -106 -140 0
35 -65 90 140 0
14 61 94 140 0
9 -66 117 140 0
-37 -59 -91 -141 0
26 -78 114 -141 0
-38 74 -111 141 0
36 51 118 141 0
32 -76 -82 -142 0
4 64 86 -142 0
-8 64 88 -142 0
8 45 103 -142 0
9 48 -108 -142 0
15 73 -110 -142 0
-14 -59 -94 142 0
40 -41 120 142 0
-15 -52 -100 -143 0
-7 -46 109 -143 0
-10 43 111 -144 0
20 59 -82 144 0
-16 -51 104 144 0
-28 60 110 144 0
37 -59 99 -145 0
23 -61 -101 -145 0
-18 47 -102 -145 0
28 -52 -117 -145 0
37 -78 -81 145 0
-22 56 -113 145 0
-38 -62 -89 -146 0
-5 63 92 -146 0
29 -68 -112 -146 0
40 54 -95 146 0
3 -74 89 -147 0
17 -56 96 -147 0
-10 41 109 -147 0
-22 -73 -120 -147 0
25 -41 90 -148 0
-14 -72 -83 148 0
-15 -65 84 148 0
-29 -48 -82 -149 0
-25 56 -102 -149 0
-26 55 107 -149 0
-16 -78 93 149 0
10 -79 -108 149 0
39 -51 -117 149 0
-31 -76 97 -150 0
23 -76 120 -150 0
9 48 -93 150 0
34 -70 95 150 0
-5 67 98 150 0
6 67 -113 150 0
-3 -68 -119 150 0
19 65 87 -151 0
17 61 92 -151 0
-23 45 97 -151 0
14 -67 112 -151 0
5 -60 101 151 0
13 71 96 -152 0
-35 51 -106 -152 0
-6 54 -114 -152 0
31 75 -92 152 0
-34 45 -118 152 0
16 56 84 -153 0
-25 -74 89 -153 0
5 -57 -106 -153 0
23 42 108 -153 0
-38 -51 95 153 0
-21 -58 -110 153 0
-29 -48 115 153 0
-20 -48 -89 -154 0
-24 -53 90 -154 0
-39 47 -108 -154 0
22 49 94 154 0
-3 -55 -117 154 0
30 51 -103 -155 0
-29 -75 112 -155 0
-13 -64 -87 155 0
-36 -61 104 155 0
36 -44 106 155 0
-32 47 -113 155 0
13 -52 83 -156 0
38 -79 112 -156 0
36 79 -114 -156 0
-31 80 -89 156 0
25 56 -101 156 0
-5 62 -112 156 0
-21 75 -97 -157 0
-10 -76 -102 -157 0
-7 67 82 157 0
-4 80 84 157 0
-27 61 87 157 0
4 -78 -95 157 0
8 -73 113 157 0
-6 46 83 -158 0
-5 -55 -88 -158 0
27 72 96 158 0
3 79 -103 158 0
8 56 -83 159 0
28 61 -82 -160 0
-2 47 101 -160 0
-19 -72 -112 -160 0
37 -53 -114 -160 0
31 -51 -108 160 0
-5 -78 -110 160 0
